# Solution for model r3_t27_m7_7 Batch Number: 4
# Finished Task: 24 / 27
# Makespan: 1010.0, Total Distance: 683.0, Total Time: 6.1533
# R O S F Batch
0 0 3 0.0 0.0 -1
1 1 13 0.0 0.0 -1
2 2 20 0.0 0.0 -1
3 0 6 346.0 379.0 0
4 0 5 724.0 757.0 2
5 0 26 784.0 821.0 2
6 0 16 429.0 456.0 0
7 1 29 738.0 760.0 2
8 -1 -1 -1.0 -1.0 2
9 1 14 411.0 450.0 0
10 2 25 512.0 537.0 0
11 -1 -1 -1.0 -1.0 3
12 1 22 583.0 615.0 0
13 1 9 277.0 313.0 0
14 1 12 537.0 571.0 0
15 2 -1 761.0 797.0 2
16 0 17 489.0 521.0 0
17 0 23 532.0 566.0 0
18 1 7 676.0 696.0 2
19 2 15 718.0 741.0 2
20 2 10 458.0 489.0 0
21 0 24 915.0 944.0 3
22 1 18 615.0 652.0 0
23 0 4 669.0 693.0 2
24 0 -1 975.0 1010.0 3
25 2 27 544.0 576.0 0
26 0 21 854.0 876.0 3
27 2 19 617.0 652.0 1
28 -1 -1 -1.0 -1.0 3
29 1 -1 797.0 821.0 2
